QPLIB_3738
QBB
maximize
435 # number of variables
840 # number of quadratic terms in objective
57 1 -4.0
200 1 -4.0
201 1 4.0
216 1 4.0
220 2 -4.0
237 2 4.0
300 2 4.0
326 2 -4.0
4 3 -4.0
259 3 4.0
356 3 4.0
359 3 -4.0
11 4 4.0
256 4 -4.0
278 4 4.0
244 5 4.0
265 5 -4.0
308 5 4.0
336 5 -4.0
162 6 -4.0
220 6 -4.0
355 6 4.0
398 6 4.0
229 7 4.0
285 7 4.0
287 7 -4.0
368 7 -4.0
9 8 4.0
10 8 -4.0
75 8 4.0
84 8 -4.0
62 9 4.0
163 9 -4.0
170 9 -4.0
73 10 4.0
74 10 4.0
164 10 -4.0
259 11 4.0
431 11 -4.0
434 11 -4.0
13 12 -4.0
82 12 4.0
173 12 -4.0
210 12 4.0
178 13 -4.0
209 13 4.0
309 13 4.0
15 14 4.0
16 14 -4.0
63 14 4.0
94 14 -4.0
32 15 -4.0
55 15 4.0
168 15 -4.0
83 16 4.0
168 16 -4.0
291 16 4.0
18 17 4.0
37 17 -4.0
249 17 4.0
315 17 -4.0
45 18 -4.0
63 18 -4.0
65 18 4.0
257 19 4.0
393 19 4.0
396 19 -4.0
429 19 -4.0
21 20 4.0
162 20 -4.0
261 20 4.0
361 20 -4.0
396 21 4.0
397 21 -4.0
400 21 -4.0
71 22 4.0
197 22 4.0
198 22 -4.0
229 22 -4.0
232 23 -4.0
246 23 4.0
339 23 4.0
411 23 -4.0
25 24 -4.0
56 24 4.0
339 24 4.0
343 24 -4.0
93 25 4.0
170 25 -4.0
313 25 4.0
27 26 4.0
214 26 -4.0
272 26 4.0
292 26 -4.0
50 27 -4.0
56 27 -4.0
381 27 4.0
249 28 -4.0
272 28 4.0
295 28 4.0
320 28 -4.0
307 29 -4.0
333 29 4.0
335 29 4.0
405 29 -4.0
31 30 4.0
180 30 4.0
211 30 -4.0
244 30 -4.0
103 31 -4.0
129 31 4.0
369 31 -4.0
33 32 4.0
34 32 -4.0
44 32 4.0
146 33 4.0
180 33 -4.0
245 33 -4.0
82 34 -4.0
289 34 4.0
373 34 4.0
199 35 -4.0
270 35 -4.0
294 35 4.0
416 35 4.0
37 36 -4.0
86 36 4.0
294 36 4.0
349 36 -4.0
121 37 4.0
233 37 4.0
39 38 -4.0
133 38 4.0
365 38 4.0
367 38 -4.0
107 39 -4.0
114 39 4.0
332 39 4.0
41 40 4.0
175 40 4.0
230 40 -4.0
265 40 -4.0
111 41 -4.0
135 41 4.0
406 41 -4.0
150 42 4.0
163 42 4.0
175 42 -4.0
230 42 -4.0
130 43 4.0
136 43 4.0
163 43 -4.0
198 43 -4.0
163 44 -4.0
377 44 4.0
414 44 -4.0
62 45 4.0
189 45 4.0
377 45 -4.0
78 46 4.0
214 46 -4.0
318 46 4.0
385 46 -4.0
48 47 -4.0
128 47 4.0
402 47 4.0
404 47 -4.0
98 48 -4.0
284 48 4.0
364 48 4.0
178 49 -4.0
179 49 4.0
286 49 -4.0
288 49 4.0
55 50 4.0
342 50 -4.0
416 50 4.0
67 51 4.0
199 51 -4.0
347 51 4.0
421 51 -4.0
255 52 4.0
277 52 -4.0
397 52 4.0
431 52 -4.0
54 53 -4.0
124 53 4.0
167 53 4.0
285 53 -4.0
89 54 -4.0
263 54 4.0
401 54 4.0
312 55 -4.0
314 55 -4.0
291 56 4.0
292 56 -4.0
68 57 4.0
297 57 -4.0
384 57 4.0
141 58 4.0
236 58 -4.0
353 58 -4.0
355 58 4.0
60 59 4.0
61 59 -4.0
120 59 4.0
308 59 -4.0
70 60 4.0
225 60 -4.0
334 60 -4.0
80 61 -4.0
127 61 4.0
242 61 4.0
143 62 -4.0
290 62 -4.0
270 63 -4.0
313 63 4.0
65 64 4.0
190 64 -4.0
200 64 -4.0
420 64 4.0
148 65 -4.0
345 65 -4.0
131 66 4.0
166 66 4.0
200 66 -4.0
420 66 -4.0
166 67 -4.0
233 67 -4.0
386 67 4.0
166 68 -4.0
192 68 4.0
202 68 -4.0
138 69 4.0
219 69 -4.0
325 69 -4.0
328 69 4.0
226 70 -4.0
72 71 4.0
246 71 -4.0
411 71 -4.0
91 72 -4.0
130 72 -4.0
159 72 4.0
147 73 -4.0
411 73 4.0
412 73 -4.0
165 74 4.0
267 74 -4.0
269 74 -4.0
248 75 -4.0
315 75 -4.0
341 75 4.0
152 76 -4.0
315 76 4.0
316 76 -4.0
382 76 4.0
125 77 4.0
169 77 4.0
201 77 -4.0
383 77 -4.0
169 78 -4.0
250 78 -4.0
350 78 4.0
132 79 4.0
203 79 -4.0
299 79 -4.0
302 79 4.0
167 80 4.0
142 81 -4.0
167 81 4.0
309 82 4.0
374 82 -4.0
151 83 -4.0
374 83 4.0
375 83 -4.0
292 84 -4.0
376 84 4.0
417 84 4.0
171 85 4.0
191 85 -4.0
233 85 4.0
348 85 -4.0
171 86 -4.0
273 86 -4.0
321 86 4.0
96 87 -4.0
126 87 4.0
276 87 -4.0
278 87 4.0
106 88 4.0
177 88 -4.0
239 88 4.0
260 88 -4.0
402 89 4.0
145 90 -4.0
402 90 4.0
92 91 4.0
196 91 4.0
228 91 -4.0
198 92 4.0
287 92 -4.0
372 92 -4.0
157 93 -4.0
338 93 4.0
340 93 -4.0
270 94 -4.0
379 94 4.0
413 94 4.0
174 95 4.0
185 95 -4.0
250 95 4.0
319 95 -4.0
97 96 4.0
182 96 -4.0
393 96 4.0
219 97 -4.0
251 97 4.0
296 97 -4.0
365 98 4.0
149 99 -4.0
365 99 4.0
101 100 4.0
103 100 4.0
196 100 -4.0
403 100 -4.0
145 101 -4.0
365 101 4.0
368 101 -4.0
103 102 4.0
104 102 4.0
243 102 -4.0
371 102 -4.0
124 103 -4.0
211 104 4.0
265 104 -4.0
409 104 -4.0
112 105 -4.0
176 105 4.0
181 105 -4.0
273 105 4.0
187 106 -4.0
333 107 4.0
307 108 -4.0
333 108 4.0
149 109 -4.0
208 109 4.0
333 109 4.0
336 109 -4.0
111 110 4.0
264 110 -4.0
266 110 4.0
408 110 -4.0
120 111 -4.0
208 111 4.0
152 112 4.0
294 112 4.0
295 112 -4.0
114 113 4.0
178 113 -4.0
228 113 -4.0
334 113 4.0
307 114 -4.0
308 114 -4.0
215 115 -4.0
249 115 4.0
271 115 4.0
379 115 -4.0
117 116 4.0
118 116 -4.0
119 116 4.0
193 116 -4.0
132 117 4.0
238 117 -4.0
430 117 -4.0
138 118 4.0
220 118 4.0
258 118 -4.0
204 119 -4.0
206 119 4.0
223 119 -4.0
243 120 -4.0
284 120 4.0
199 121 -4.0
293 121 4.0
345 121 -4.0
126 122 4.0
204 122 4.0
221 122 -4.0
395 122 -4.0
141 123 4.0
204 123 -4.0
237 123 4.0
280 123 -4.0
263 124 4.0
264 124 -4.0
214 125 4.0
215 125 -4.0
384 125 -4.0
354 126 -4.0
357 126 -4.0
227 127 -4.0
196 128 -4.0
242 128 4.0
286 128 -4.0
130 129 4.0
197 129 -4.0
373 129 -4.0
157 130 -4.0
421 131 -4.0
423 131 4.0
424 131 -4.0
327 132 -4.0
329 132 -4.0
134 133 4.0
209 133 -4.0
406 133 -4.0
226 134 4.0
227 134 -4.0
335 134 -4.0
210 135 -4.0
337 135 4.0
410 135 -4.0
137 136 4.0
212 136 -4.0
267 136 -4.0
291 137 -4.0
311 137 -4.0
341 137 4.0
301 138 -4.0
303 138 -4.0
143 139 4.0
314 139 -4.0
380 139 -4.0
418 139 4.0
233 140 4.0
418 140 4.0
419 140 -4.0
420 140 -4.0
277 141 -4.0
279 141 -4.0
242 142 4.0
401 142 4.0
403 142 -4.0
291 143 4.0
293 143 -4.0
250 144 4.0
380 144 4.0
381 144 -4.0
383 144 -4.0
263 145 4.0
364 145 4.0
147 146 4.0
267 146 -4.0
340 146 -4.0
409 147 4.0
410 147 -4.0
273 148 4.0
346 148 4.0
348 148 -4.0
284 149 4.0
332 149 4.0
151 150 4.0
290 150 -4.0
375 150 -4.0
372 151 4.0
373 151 -4.0
317 152 4.0
319 152 -4.0
154 153 4.0
305 153 -4.0
161 154 -4.0
433 154 4.0
434 154 -4.0
309 155 4.0
406 155 4.0
407 155 -4.0
408 155 -4.0
157 156 4.0
310 156 4.0
312 156 -4.0
412 156 -4.0
337 157 4.0
331 158 -4.0
435 158 4.0
369 159 4.0
370 159 -4.0
371 159 -4.0
354 160 4.0
425 160 4.0
426 160 -4.0
429 160 -4.0
435 161 4.0
359 162 -4.0
396 162 4.0
212 164 -4.0
310 164 4.0
339 164 -4.0
315 165 -4.0
414 165 -4.0
416 165 -4.0
217 166 -4.0
366 167 -4.0
231 168 -4.0
338 168 4.0
217 169 -4.0
234 169 -4.0
247 170 -4.0
374 170 4.0
234 171 -4.0
251 171 -4.0
183 172 -4.0
362 172 -4.0
179 173 -4.0
310 173 4.0
411 173 -4.0
251 174 -4.0
274 174 -4.0
295 174 -4.0
338 175 4.0
408 175 4.0
274 176 -4.0
296 176 -4.0
320 176 -4.0
194 177 -4.0
405 178 -4.0
245 179 -4.0
287 179 -4.0
371 180 4.0
374 180 4.0
296 181 -4.0
322 181 -4.0
349 181 -4.0
234 182 4.0
236 182 -4.0
322 182 -4.0
184 183 -4.0
222 183 4.0
281 183 -4.0
206 184 -4.0
322 185 -4.0
351 185 -4.0
385 185 -4.0
203 186 -4.0
217 186 4.0
253 186 -4.0
351 186 -4.0
188 187 -4.0
205 187 4.0
433 187 -4.0
223 188 -4.0
190 189 -4.0
213 189 -4.0
269 189 -4.0
214 190 -4.0
316 190 4.0
351 191 -4.0
387 191 -4.0
421 191 -4.0
219 192 -4.0
276 192 -4.0
387 192 -4.0
194 193 4.0
221 193 -4.0
240 193 -4.0
195 194 -4.0
399 194 -4.0
240 195 -4.0
197 196 -4.0
370 197 -4.0
338 198 -4.0
200 199 -4.0
387 201 -4.0
423 201 -4.0
236 202 -4.0
299 202 -4.0
423 202 -4.0
389 203 -4.0
428 203 4.0
205 204 -4.0
238 205 -4.0
261 205 -4.0
207 206 -4.0
360 206 -4.0
261 207 -4.0
209 208 -4.0
366 208 4.0
210 209 -4.0
407 210 -4.0
212 211 -4.0
310 211 -4.0
337 212 4.0
215 213 -4.0
248 213 -4.0
318 213 4.0
216 215 -4.0
382 216 4.0
384 216 4.0
218 217 -4.0
253 218 -4.0
325 218 -4.0
424 218 4.0
254 219 -4.0
254 220 -4.0
222 221 -4.0
257 221 -4.0
258 222 -4.0
282 222 -4.0
224 223 -4.0
400 223 -4.0
282 224 -4.0
227 225 -4.0
306 226 -4.0
334 226 -4.0
366 227 -4.0
229 228 -4.0
335 228 -4.0
288 229 -4.0
231 230 -4.0
266 230 4.0
289 231 -4.0
372 231 4.0
268 232 -4.0
289 232 -4.0
313 232 -4.0
235 234 -4.0
276 235 -4.0
353 235 -4.0
388 235 4.0
428 236 -4.0
356 237 -4.0
428 237 4.0
239 238 -4.0
279 238 -4.0
280 239 -4.0
305 239 -4.0
241 240 -4.0
434 240 -4.0
305 241 -4.0
367 242 -4.0
244 243 -4.0
367 243 -4.0
266 244 -4.0
247 245 -4.0
288 245 4.0
311 246 4.0
410 246 4.0
311 247 -4.0
409 247 4.0
343 248 -4.0
380 248 4.0
250 249 4.0
252 251 -4.0
299 252 -4.0
352 252 4.0
391 252 -4.0
255 253 -4.0
393 253 -4.0
256 254 -4.0
392 254 -4.0
256 255 -4.0
391 255 -4.0
257 256 -4.0
304 257 -4.0
260 258 -4.0
303 258 -4.0
282 259 4.0
331 259 -4.0
304 260 -4.0
331 260 -4.0
262 261 -4.0
331 262 -4.0
404 263 -4.0
265 264 -4.0
404 264 -4.0
409 266 4.0
376 267 4.0
269 268 -4.0
312 268 4.0
343 268 -4.0
271 269 -4.0
346 270 4.0
344 271 -4.0
346 271 -4.0
273 272 4.0
418 272 4.0
275 274 -4.0
389 274 -4.0
323 275 4.0
325 275 -4.0
427 275 -4.0
277 276 -4.0
427 277 -4.0
279 278 4.0
394 278 -4.0
330 279 -4.0
281 280 -4.0
329 280 -4.0
330 281 -4.0
361 281 -4.0
283 282 -4.0
361 283 -4.0
285 284 -4.0
286 285 -4.0
287 286 -4.0
372 288 4.0
290 289 -4.0
413 290 4.0
317 292 4.0
317 293 -4.0
378 293 -4.0
380 294 4.0
321 295 -4.0
298 296 -4.0
298 297 -4.0
321 297 -4.0
389 297 -4.0
300 298 -4.0
353 298 -4.0
301 299 -4.0
301 300 -4.0
390 300 -4.0
355 301 -4.0
303 302 4.0
354 302 -4.0
396 302 4.0
358 303 -4.0
357 304 -4.0
433 304 -4.0
359 305 4.0
307 306 -4.0
406 308 -4.0
337 309 -4.0
312 311 -4.0
314 313 4.0
316 314 -4.0
415 316 -4.0
347 317 4.0
319 318 4.0
346 318 4.0
320 319 -4.0
350 320 -4.0
323 321 -4.0
324 322 -4.0
324 323 -4.0
350 323 -4.0
326 324 -4.0
391 324 -4.0
327 325 -4.0
327 326 -4.0
426 326 -4.0
328 327 -4.0
329 328 4.0
356 328 4.0
398 329 -4.0
397 330 -4.0
399 330 -4.0
336 334 -4.0
369 335 -4.0
369 336 -4.0
342 339 4.0
342 340 -4.0
413 340 -4.0
344 341 4.0
412 341 -4.0
344 342 -4.0
345 343 4.0
345 344 -4.0
348 347 4.0
419 347 -4.0
349 348 -4.0
386 349 -4.0
352 350 -4.0
425 351 -4.0
386 352 -4.0
425 352 -4.0
354 353 -4.0
357 355 4.0
432 356 4.0
432 357 -4.0
360 358 -4.0
431 358 -4.0
433 358 -4.0
362 359 -4.0
362 360 -4.0
432 360 -4.0
363 361 -4.0
363 362 -4.0
368 366 -4.0
370 367 -4.0
370 368 -4.0
373 371 -4.0
376 375 -4.0
377 375 -4.0
378 376 4.0
378 377 -4.0
379 378 -4.0
381 379 -4.0
382 381 -4.0
383 382 4.0
385 383 -4.0
422 384 4.0
422 385 -4.0
388 386 -4.0
390 387 -4.0
390 388 -4.0
422 388 -4.0
392 389 -4.0
392 390 -4.0
394 391 -4.0
394 392 -4.0
395 393 4.0
395 394 -4.0
397 395 -4.0
399 398 -4.0
400 398 -4.0
435 399 4.0
435 400 -4.0
403 402 4.0
405 403 -4.0
407 404 -4.0
407 405 -4.0
410 408 -4.0
414 412 -4.0
415 413 4.0
415 414 -4.0
417 415 -4.0
419 416 4.0
418 417 -4.0
419 417 -4.0
421 420 -4.0
424 422 -4.0
426 423 -4.0
426 424 -4.0
427 425 -4.0
429 427 -4.0
430 428 4.0
430 429 -4.0
431 430 -4.0
434 432 -4.0
0.0 # default value for linear coefficients in objective
274 # number of non-default linear coefficients in objective
162 2.0
163 2.0
164 2.0
165 2.0
166 2.0
167 -2.0
168 2.0
169 2.0
170 2.0
171 2.0
172 2.0
173 2.0
174 2.0
175 -2.0
176 2.0
177 2.0
178 4.0
179 2.0
180 -2.0
181 4.0
182 2.0
183 2.0
184 2.0
185 4.0
186 2.0
187 2.0
188 2.0
189 2.0
190 2.0
191 4.0
192 2.0
193 2.0
194 2.0
195 2.0
196 2.0
197 2.0
198 2.0
199 4.0
200 4.0
201 2.0
202 4.0
203 2.0
204 2.0
205 2.0
206 2.0
207 2.0
208 -2.0
209 2.0
210 2.0
211 2.0
212 2.0
213 2.0
214 2.0
215 4.0
216 -2.0
217 2.0
218 2.0
219 4.0
220 2.0
221 4.0
222 2.0
223 4.0
224 2.0
225 2.0
226 2.0
227 4.0
228 4.0
229 2.0
230 2.0
231 2.0
232 4.0
233 -2.0
234 2.0
235 2.0
236 4.0
237 -2.0
238 4.0
239 2.0
240 4.0
241 2.0
242 -2.0
243 4.0
244 2.0
245 2.0
246 -2.0
247 2.0
248 2.0
249 -2.0
250 -2.0
251 2.0
252 2.0
253 4.0
254 4.0
255 2.0
256 4.0
257 2.0
258 4.0
259 -2.0
260 4.0
261 2.0
262 2.0
263 -2.0
264 4.0
265 4.0
266 -2.0
267 2.0
268 2.0
269 4.0
270 2.0
271 2.0
272 -4.0
273 -2.0
274 4.0
275 2.0
276 4.0
277 4.0
278 -2.0
279 2.0
280 4.0
281 4.0
282 2.0
283 2.0
284 -2.0
285 2.0
286 4.0
287 4.0
288 -2.0
289 2.0
290 2.0
291 -2.0
292 2.0
293 2.0
294 -4.0
295 2.0
296 4.0
297 4.0
298 4.0
299 4.0
300 2.0
301 4.0
302 -2.0
303 2.0
304 4.0
305 2.0
306 2.0
307 4.0
308 2.0
309 -2.0
310 -2.0
311 2.0
312 2.0
313 -2.0
314 2.0
315 2.0
316 2.0
317 -2.0
318 -4.0
319 2.0
320 4.0
321 2.0
322 4.0
323 2.0
324 4.0
325 4.0
326 4.0
327 4.0
328 -2.0
329 2.0
330 4.0
331 4.0
332 -2.0
333 -4.0
334 2.0
335 2.0
336 4.0
337 -2.0
338 -2.0
339 -2.0
340 4.0
341 -2.0
342 2.0
343 2.0
344 2.0
345 2.0
346 -2.0
347 -2.0
348 2.0
349 4.0
350 2.0
351 4.0
352 2.0
353 4.0
354 2.0
355 -2.0
356 -2.0
357 2.0
358 4.0
359 2.0
360 4.0
361 4.0
362 4.0
363 2.0
364 -2.0
365 -4.0
366 2.0
367 4.0
368 4.0
369 2.0
370 4.0
371 2.0
372 -2.0
373 2.0
374 -2.0
375 4.0
376 -2.0
377 2.0
378 2.0
379 2.0
380 -2.0
381 2.0
382 -2.0
383 2.0
384 -2.0
385 4.0
386 2.0
387 4.0
388 2.0
389 4.0
390 4.0
391 4.0
392 4.0
393 -2.0
394 4.0
395 2.0
396 -2.0
397 2.0
398 2.0
399 2.0
400 4.0
401 -2.0
402 -4.0
403 2.0
404 4.0
405 4.0
406 2.0
407 4.0
408 2.0
409 -2.0
410 2.0
411 2.0
412 4.0
413 -2.0
414 4.0
415 2.0
416 -2.0
417 2.0
418 -2.0
419 2.0
420 2.0
421 4.0
422 2.0
423 2.0
424 2.0
425 2.0
426 4.0
427 4.0
428 -2.0
429 4.0
430 2.0
431 4.0
432 2.0
433 2.0
434 4.0
435 -2.0
0.0 # objective constant
1.79769313486232E+308 # value for infinity
0.0 # default variable primal value in starting point
0 # number of non-default variable primal values in starting point
0.0 # default variable bound dual value in starting point
0 # number of non-default variable bound dual values in starting point
0 # number of non-default variable names
0 # number of non-default constraint names
